solution status: optimal solution found
objective value:                                   17
x31                                                 1 	(obj:1)
x34                                                 1 	(obj:1)
x35                                                 1 	(obj:1)
x38                                                 1 	(obj:1)
x42                                                 1 	(obj:1)
x50                                                 1 	(obj:1)
x52                                                 1 	(obj:1)
x55                                                 1 	(obj:1)
x59                                                 1 	(obj:1)
x60                                                 1 	(obj:1)
x69                                                 1 	(obj:1)
x70                                                 1 	(obj:1)
x72                                                 1 	(obj:1)
x92                                                 1 	(obj:1)
x94                                                 1 	(obj:1)
x95                                                 1 	(obj:1)
x96                                                 1 	(obj:1)
one.thingy.devices[1].thingy.v9_y                   23 	(obj:0)
one.thingy.devices[1].thingy.v9_z                   22 	(obj:0)
one.thingy.devices[2].thingy.v8_y                   23 	(obj:0)
one.thingy.devices[2].thingy.v8_z                   21 	(obj:0)
one.thingy.devices[3].thingy.v9_y                   23 	(obj:0)
one.thingy.devices[3].thingy.v9_z                   17 	(obj:0)
one.thingy.devices[1].thingy.v7_y                   24 	(obj:0)
one.thingy.devices[1].thingy.v7_z                   23 	(obj:0)
one.thingy.devices[2].thingy.v7_y                   24 	(obj:0)
one.thingy.devices[2].thingy.v7_z                   21 	(obj:0)
one.ctrl_s[2].flush_y                              24 	(obj:0)
one.ctrl_s[2].flush_z                              17 	(obj:0)
one.ctrl_s[2].hole_y                               25 	(obj:0)
one.ctrl_s[2].hole_z                               21 	(obj:0)
one.thingy.devices[0].thingy.v8_y                   25 	(obj:0)
one.thingy.devices[0].thingy.v8_z                   23 	(obj:0)
one.thingy.devices[3].thingy.v8_y                   24 	(obj:0)
one.thingy.devices[3].thingy.v8_z                   19 	(obj:0)
one.thingy.devices[1].thingy.v8_y                   23 	(obj:0)
one.thingy.devices[1].thingy.v8_z                   24 	(obj:0)
one.thingy.devices[3].thingy.v7_y                   24 	(obj:0)
one.thingy.devices[3].thingy.v7_z                   18 	(obj:0)
one.thingy.devices[0].thingy.v7_y                   24 	(obj:0)
one.thingy.devices[0].thingy.v7_z                   24 	(obj:0)
one.thingy.devices[2].thingy.v9_y                   24 	(obj:0)
one.thingy.devices[2].thingy.v9_z                   20 	(obj:0)
one.thingy.devices[0].thingy.v9_y                   23 	(obj:0)
one.thingy.devices[0].thingy.v9_z                   23 	(obj:0)
